c random assignment satisfied 208/430 clauses
o 222
c flipped 0/100 variables (k=0)
c solution improved by 1 clause
o 221
c flipped 0/100 variables (k=0)
c solution improved by 1 clause
o 220
c flipped 0/100 variables (k=0)
c solution improved by 8 clauses
o 212
c flipped 0/100 variables (k=0)
c solution improved by 21 clauses
o 191
c flipped 0/100 variables (k=0)
c solution improved by 32 clauses
o 159
c flipped 0/100 variables (k=0)
c solution improved by 12 clauses
o 147
c flipped 0/100 variables (k=0)
c solution improved by 2 clauses
o 145
c flipped 0/100 variables (k=0)
c solution improved by 1 clause
o 144
c flipped 0/100 variables (k=0)
c solution improved by 25 clauses
o 119
c flipped 0/100 variables (k=0)
c solution improved by 5 clauses
o 114
c flipped 0/100 variables (k=0)
c solution improved by 2 clauses
o 112
c flipped 0/100 variables (k=0)
c solution improved by 1 clause
o 111
c flipped 0/100 variables (k=0)
c solution improved by 2 clauses
o 109
c flipped 0/100 variables (k=0)
c solution improved by 16 clauses
o 93
c flipped 0/100 variables (k=0)
c solution improved by 1 clause
o 92
c flipped 0/100 variables (k=0)
c solution improved by 15 clauses
o 77
c flipped 0/100 variables (k=0)
c solution improved by 1 clause
o 76
c flipped 0/100 variables (k=0)
c solution improved by 1 clause
o 75
c flipped 0/100 variables (k=0)
c solution improved by 5 clauses
o 70
c flipped 0/100 variables (k=0)
c solution improved by 2 clauses
o 68
c flipped 0/100 variables (k=0)
c solution improved by 1 clause
o 67
c flipped 0/100 variables (k=0)
c solution improved by 1 clause
o 66
c flipped 0/100 variables (k=0)
c solution improved by 2 clauses
o 64
c flipped 0/100 variables (k=0)
c solution improved by 2 clauses
o 62
c flipped 0/100 variables (k=0)
c solution improved by 2 clauses
o 60
c flipped 0/100 variables (k=0)
c solution improved by 2 clauses
o 58
c flipped 0/100 variables (k=0)
c solution improved by 1 clause
o 57
c flipped 0/100 variables (k=0)
c solution improved by 2 clauses
o 55
c flipped 0/100 variables (k=0)
c solution improved by 1 clause
o 54
c flipped 0/100 variables (k=0)
c solution improved by 1 clause
o 53
v 1110000110000011010101101110000000000111111010110001001000001101111011111001000010010010010110001110
c stuck at 377/430 clauses with k=0
s UNKNOWN
